(set-info :status unknown)
(declare-const symbol_100004 (_ BitVec 32))
(declare-const symbol_100002 (_ BitVec 32))
(declare-const symbol_100001 (_ BitVec 32))
(declare-const symbol_100000 (_ BitVec 32))
(declare-const symbol_100003 (_ BitVec 32))
(assert (= symbol_100002 symbol_100004))
(assert (not (= symbol_100001 symbol_100004)))
(assert (not (= symbol_100000 symbol_100004)))
(assert (not (= symbol_100002 symbol_100003)))
(assert (not (= symbol_100001 symbol_100003)))
(assert (not (= symbol_100000 symbol_100003)))
(assert (not (= symbol_100001 symbol_100002)))
(assert (not (= symbol_100000 symbol_100002)))
(assert (not (= symbol_100000 symbol_100001)))
(check-sat)